30534
0 0 0 1 1 1 1 0 1 0 0 1 0 0 0 1 1 1 0 0 1 0 1 1 1 1 1 0 1 1 
22 6 24 22 5 6 15 28 22 28 4 28 20 3 28 11 3 20 22 24 11 16 5 24 23 11 24 28 29 5 6 26 4 16 28 6 20 8 24 16 25 8 6 4 8 26 3 16 6 20 24 16 24 16 8 6 11 8 22 25 29 17 25 8 3 11 5 17 28 25 25 6 6 8 23 23 20 23 8 16 23 17 26 25 29 20 6 5 24 25 28 6 25 25 5 3 11 6 17 28 28 15 25 25 4 24 4 24 22 3 26 4 22 6 11 8 28 25 17 8 26 11 17 6 26 16 24 11 26 17 28 24 25 20 23 8 3 3 28 20 11 22 11 11 25 5 24 15 22 25 24 17 23 17 8 11 5 15 3 3 3 24 23 24 5 24 5 4 3 15 5 20 28 20 26 5 17 20 29 20 5 15 16 6 11 8 28 23 17 16 5 16 6 4 25 6 25 15 23 6 
